p cnf 400 1058
1 0
-2 0
-3 0
-4 0
-5 0
-6 0
-7 0
-8 0
-9 0
-10 0
-11 0
-12 0
-13 0
-14 0
-15 0
-16 0
-17 0
-18 0
-19 0
-20 0
-21 0
-22 0
-23 0
-24 0
-25 0
-26 0
-27 0
-28 0
-29 0
-30 0
-31 0
-32 0
-33 0
-34 0
-35 0
-36 0
-37 0
-38 0
-39 0
-40 0
1 -41 0
-1 41 0
42 43 0
41 43 0
44 43 0
-42 -41 -44 -43 0
-2 43 -45 0
2 -43 -45 0
45 -43 -2 0
2 43 45 0
-45 0
42 46 0
41 46 0
-42 -41 -46 0
-47 46 -48 0
47 -46 -48 0
48 -46 -47 0
47 46 48 0
-48 0
49 50 0
51 50 0
52 50 0
-52 -49 -51 -50 0
-3 50 -53 0
3 -50 -53 0
53 -50 -3 0
3 50 53 0
-53 0
52 54 0
49 54 0
51 54 0
-52 -49 -51 -54 0
-55 54 -56 0
55 -54 -56 0
56 -54 -55 0
55 54 56 0
-56 0
-57 54 -58 0
57 -54 -58 0
58 -54 -57 0
57 54 58 0
-58 0
52 59 0
60 59 0
49 59 0
51 59 0
-61 0
-4 59 -62 0
4 -59 -62 0
62 -59 -4 0
4 59 62 0
-62 0
63 64 0
65 64 0
66 64 0
67 64 0
-68 0
-5 64 -69 0
5 -64 -69 0
69 -64 -5 0
5 64 69 0
-69 0
65 70 0
66 70 0
67 70 0
-65 -66 -67 -70 0
-71 70 -72 0
71 -70 -72 0
72 -70 -71 0
71 70 72 0
-72 0
66 73 0
67 73 0
-66 -67 -73 0
-6 73 -74 0
6 -73 -74 0
74 -73 -6 0
6 73 74 0
-74 0
67 75 0
66 75 0
-66 -67 -75 0
-7 75 -76 0
7 -75 -76 0
76 -75 -7 0
7 75 76 0
-76 0
77 78 0
79 78 0
80 78 0
81 78 0
82 78 0
83 78 0
84 78 0
85 78 0
-86 0
-8 78 -87 0
8 -78 -87 0
87 -78 -8 0
8 78 87 0
-87 0
79 88 0
80 88 0
81 88 0
82 88 0
83 88 0
84 88 0
85 88 0
-89 0
-90 88 -91 0
90 -88 -91 0
91 -88 -90 0
90 88 91 0
-91 0
80 92 0
81 92 0
82 92 0
83 92 0
84 92 0
85 92 0
-93 0
-94 92 -95 0
94 -92 -95 0
95 -92 -94 0
94 92 95 0
-95 0
81 96 0
82 96 0
83 96 0
84 96 0
85 96 0
-97 0
-98 96 -99 0
98 -96 -99 0
99 -96 -98 0
98 96 99 0
-99 0
82 100 0
83 100 0
84 100 0
85 100 0
-101 0
-102 100 -103 0
102 -100 -103 0
103 -100 -102 0
102 100 103 0
-103 0
-104 100 -105 0
104 -100 -105 0
105 -100 -104 0
104 100 105 0
-105 0
-106 100 -107 0
106 -100 -107 0
107 -100 -106 0
106 100 107 0
-107 0
-108 100 -109 0
108 -100 -109 0
109 -100 -108 0
108 100 109 0
-109 0
82 110 0
83 110 0
84 110 0
111 110 0
85 110 0
112 110 0
-113 0
-9 110 -114 0
9 -110 -114 0
114 -110 -9 0
9 110 114 0
-114 0
82 115 0
83 115 0
84 115 0
85 115 0
112 115 0
-116 0
-117 115 -118 0
117 -115 -118 0
118 -115 -117 0
117 115 118 0
-118 0
119 120 0
121 120 0
122 120 0
123 120 0
124 120 0
125 120 0
126 120 0
-127 0
-10 120 -128 0
10 -120 -128 0
128 -120 -10 0
10 120 128 0
-128 0
121 129 0
122 129 0
123 129 0
124 129 0
125 129 0
126 129 0
-130 0
-131 129 -132 0
131 -129 -132 0
132 -129 -131 0
131 129 132 0
-132 0
122 133 0
123 133 0
124 133 0
125 133 0
126 133 0
-134 0
-135 133 -136 0
135 -133 -136 0
136 -133 -135 0
135 133 136 0
-136 0
123 137 0
124 137 0
125 137 0
126 137 0
-138 0
-139 137 -140 0
139 -137 -140 0
140 -137 -139 0
139 137 140 0
-140 0
-141 137 -142 0
141 -137 -142 0
142 -137 -141 0
141 137 142 0
-142 0
-143 137 -144 0
143 -137 -144 0
144 -137 -143 0
143 137 144 0
-144 0
-145 137 -146 0
145 -137 -146 0
146 -137 -145 0
145 137 146 0
-146 0
147 148 0
149 148 0
-149 -147 -148 0
-11 148 -150 0
11 -148 -150 0
150 -148 -11 0
11 148 150 0
-150 0
12 -149 0
-12 149 0
82 151 0
83 151 0
84 151 0
111 151 0
85 151 0
112 151 0
152 151 0
-153 0
-13 151 -154 0
13 -151 -154 0
154 -151 -13 0
13 151 154 0
-154 0
149 155 0
156 155 0
147 155 0
157 155 0
-158 0
-14 155 -159 0
14 -155 -159 0
159 -155 -14 0
14 155 159 0
-159 0
149 160 0
156 160 0
147 160 0
-149 -156 -147 -160 0
-15 160 -161 0
15 -160 -161 0
161 -160 -15 0
15 160 161 0
-161 0
123 162 0
124 162 0
163 162 0
125 162 0
126 162 0
164 162 0
-165 0
-16 162 -166 0
16 -162 -166 0
166 -162 -16 0
16 162 166 0
-166 0
123 167 0
124 167 0
125 167 0
126 167 0
164 167 0
-168 0
-169 167 -170 0
169 -167 -170 0
170 -167 -169 0
169 167 170 0
-170 0
63 171 0
65 171 0
66 171 0
172 171 0
67 171 0
-173 0
-17 171 -174 0
17 -171 -174 0
174 -171 -17 0
17 171 174 0
-174 0
82 175 0
83 175 0
84 175 0
85 175 0
176 175 0
-177 0
-18 175 -178 0
18 -175 -178 0
178 -175 -18 0
18 175 178 0
-178 0
82 179 0
83 179 0
84 179 0
85 179 0
112 179 0
180 179 0
181 179 0
-182 0
-19 179 -183 0
19 -179 -183 0
183 -179 -19 0
19 179 183 0
-183 0
82 184 0
83 184 0
84 184 0
85 184 0
112 184 0
181 184 0
-185 0
-186 184 -187 0
186 -184 -187 0
187 -184 -186 0
186 184 187 0
-187 0
52 188 0
60 188 0
189 188 0
190 188 0
191 188 0
49 188 0
51 188 0
-192 0
-20 188 -193 0
20 -188 -193 0
193 -188 -20 0
20 188 193 0
-193 0
52 194 0
60 194 0
190 194 0
191 194 0
49 194 0
51 194 0
-195 0
-21 194 -196 0
21 -194 -196 0
196 -194 -21 0
21 194 196 0
-196 0
52 197 0
60 197 0
191 197 0
49 197 0
51 197 0
-198 0
-199 197 -200 0
199 -197 -200 0
200 -197 -199 0
199 197 200 0
-200 0
65 201 0
66 201 0
67 201 0
202 201 0
-203 0
-22 201 -204 0
22 -201 -204 0
204 -201 -22 0
22 201 204 0
-204 0
205 206 0
207 206 0
208 206 0
209 206 0
210 206 0
211 206 0
212 206 0
-213 0
-23 206 -214 0
23 -206 -214 0
214 -206 -23 0
23 206 214 0
-214 0
207 215 0
208 215 0
209 215 0
210 215 0
211 215 0
212 215 0
-216 0
-217 215 -218 0
217 -215 -218 0
218 -215 -217 0
217 215 218 0
-218 0
208 219 0
209 219 0
210 219 0
211 219 0
212 219 0
-220 0
-221 219 -222 0
221 -219 -222 0
222 -219 -221 0
221 219 222 0
-222 0
209 223 0
210 223 0
211 223 0
212 223 0
-224 0
-225 223 -226 0
225 -223 -226 0
226 -223 -225 0
225 223 226 0
-226 0
210 227 0
211 227 0
212 227 0
-210 -212 -211 -227 0
-228 227 -229 0
228 -227 -229 0
229 -227 -228 0
228 227 229 0
-229 0
210 230 0
212 230 0
211 230 0
-210 -212 -211 -230 0
-231 230 -232 0
231 -230 -232 0
232 -230 -231 0
231 230 232 0
-232 0
-233 230 -234 0
233 -230 -234 0
234 -230 -233 0
233 230 234 0
-234 0
210 235 0
212 235 0
236 235 0
211 235 0
237 235 0
-238 0
-24 235 -239 0
24 -235 -239 0
239 -235 -24 0
24 235 239 0
-239 0
210 240 0
212 240 0
211 240 0
237 240 0
-241 0
-242 240 -243 0
242 -240 -243 0
243 -240 -242 0
242 240 243 0
-243 0
65 244 0
66 244 0
245 244 0
67 244 0
202 244 0
246 244 0
-247 0
-25 244 -248 0
25 -244 -248 0
248 -244 -25 0
25 244 248 0
-248 0
65 249 0
66 249 0
245 249 0
67 249 0
202 249 0
-250 0
-251 249 -252 0
251 -249 -252 0
252 -249 -251 0
251 249 252 0
-252 0
65 253 0
66 253 0
67 253 0
202 253 0
254 253 0
255 253 0
-256 0
-26 253 -257 0
26 -253 -257 0
257 -253 -26 0
26 253 257 0
-257 0
65 258 0
66 258 0
67 258 0
202 258 0
255 258 0
-259 0
-27 258 -260 0
27 -258 -260 0
260 -258 -27 0
27 258 260 0
-260 0
52 261 0
262 261 0
49 261 0
51 261 0
263 261 0
-264 0
-28 261 -265 0
28 -261 -265 0
265 -261 -28 0
28 261 265 0
-265 0
52 266 0
262 266 0
49 266 0
51 266 0
-267 0
-268 266 -269 0
268 -266 -269 0
269 -266 -268 0
268 266 269 0
-269 0
65 270 0
66 270 0
271 270 0
67 270 0
202 270 0
255 270 0
-272 0
-29 270 -273 0
29 -270 -273 0
273 -270 -29 0
29 270 273 0
-273 0
42 274 0
275 274 0
41 274 0
44 274 0
-276 0
-30 274 -277 0
30 -274 -277 0
277 -274 -30 0
30 274 277 0
-277 0
42 278 0
41 278 0
44 278 0
279 278 0
-280 0
-31 278 -281 0
31 -278 -281 0
281 -278 -31 0
31 278 281 0
-281 0
42 282 0
41 282 0
44 282 0
279 282 0
283 282 0
-284 0
-32 282 -285 0
32 -282 -285 0
285 -282 -32 0
32 282 285 0
-285 0
123 286 0
124 286 0
287 286 0
125 286 0
126 286 0
288 286 0
-289 0
-33 286 -290 0
33 -286 -290 0
290 -286 -33 0
33 286 290 0
-290 0
123 291 0
124 291 0
287 291 0
125 291 0
126 291 0
-292 0
-293 291 -294 0
293 -291 -294 0
294 -291 -293 0
293 291 294 0
-294 0
42 295 0
296 295 0
297 295 0
298 295 0
41 295 0
-299 0
-34 295 -300 0
34 -295 -300 0
300 -295 -34 0
34 295 300 0
-300 0
42 301 0
297 301 0
298 301 0
41 301 0
-302 0
-303 301 -304 0
303 -301 -304 0
304 -301 -303 0
303 301 304 0
-304 0
42 305 0
298 305 0
41 305 0
-42 -298 -41 -305 0
-306 305 -307 0
306 -305 -307 0
307 -305 -306 0
306 305 307 0
-307 0
81 308 0
82 308 0
83 308 0
84 308 0
85 308 0
309 308 0
-310 0
-35 308 -311 0
35 -308 -311 0
311 -308 -35 0
35 308 311 0
-311 0
82 312 0
83 312 0
84 312 0
111 312 0
313 312 0
314 312 0
315 312 0
316 312 0
85 312 0
112 312 0
317 312 0
318 312 0
319 312 0
320 312 0
-321 0
-36 312 -322 0
36 -312 -322 0
322 -312 -36 0
36 312 322 0
-322 0
82 323 0
83 323 0
84 323 0
111 323 0
314 323 0
315 323 0
316 323 0
85 323 0
112 323 0
317 323 0
318 323 0
319 323 0
320 323 0
-324 0
-325 323 -326 0
325 -323 -326 0
326 -323 -325 0
325 323 326 0
-326 0
82 327 0
83 327 0
84 327 0
111 327 0
314 327 0
315 327 0
316 327 0
85 327 0
112 327 0
318 327 0
319 327 0
320 327 0
-328 0
-329 327 -330 0
329 -327 -330 0
330 -327 -329 0
329 327 330 0
-330 0
82 331 0
83 331 0
84 331 0
111 331 0
315 331 0
316 331 0
85 331 0
112 331 0
318 331 0
319 331 0
320 331 0
-332 0
-333 331 -334 0
333 -331 -334 0
334 -331 -333 0
333 331 334 0
-334 0
82 335 0
83 335 0
84 335 0
111 335 0
316 335 0
85 335 0
112 335 0
318 335 0
319 335 0
320 335 0
-336 0
-337 335 -338 0
337 -335 -338 0
338 -335 -337 0
337 335 338 0
-338 0
82 339 0
83 339 0
84 339 0
111 339 0
85 339 0
112 339 0
318 339 0
319 339 0
320 339 0
-340 0
-341 339 -342 0
341 -339 -342 0
342 -339 -341 0
341 339 342 0
-342 0
82 343 0
83 343 0
84 343 0
111 343 0
85 343 0
112 343 0
319 343 0
320 343 0
-344 0
-345 343 -346 0
345 -343 -346 0
346 -343 -345 0
345 343 346 0
-346 0
82 347 0
83 347 0
84 347 0
111 347 0
85 347 0
112 347 0
320 347 0
-348 0
-349 347 -350 0
349 -347 -350 0
350 -347 -349 0
349 347 350 0
-350 0
122 351 0
123 351 0
124 351 0
352 351 0
353 351 0
125 351 0
126 351 0
354 351 0
-355 0
-37 351 -356 0
37 -351 -356 0
356 -351 -37 0
37 351 356 0
-356 0
122 357 0
123 357 0
124 357 0
352 357 0
353 357 0
125 357 0
126 357 0
-358 0
-359 357 -360 0
359 -357 -360 0
360 -357 -359 0
359 357 360 0
-360 0
122 361 0
123 361 0
124 361 0
353 361 0
125 361 0
126 361 0
-362 0
-363 361 -364 0
363 -361 -364 0
364 -361 -363 0
363 361 364 0
-364 0
82 365 0
83 365 0
84 365 0
111 365 0
366 365 0
85 365 0
112 365 0
318 365 0
319 365 0
320 365 0
367 365 0
368 365 0
-369 0
-38 365 -370 0
38 -365 -370 0
370 -365 -38 0
38 365 370 0
-370 0
82 371 0
83 371 0
84 371 0
111 371 0
85 371 0
112 371 0
318 371 0
319 371 0
320 371 0
367 371 0
368 371 0
-372 0
-373 371 -374 0
373 -371 -374 0
374 -371 -373 0
373 371 374 0
-374 0
82 375 0
83 375 0
84 375 0
111 375 0
85 375 0
112 375 0
318 375 0
319 375 0
320 375 0
368 375 0
-376 0
-377 375 -378 0
377 -375 -378 0
378 -375 -377 0
377 375 378 0
-378 0
42 379 0
298 379 0
41 379 0
380 379 0
-381 0
-39 379 -382 0
39 -379 -382 0
382 -379 -39 0
39 379 382 0
-382 0
52 383 0
262 383 0
384 383 0
385 383 0
49 383 0
51 383 0
-386 0
-40 383 -387 0
40 -383 -387 0
387 -383 -40 0
40 383 387 0
-387 0
52 388 0
262 388 0
385 388 0
49 388 0
51 388 0
-389 0
-390 388 -391 0
390 -388 -391 0
391 -388 -390 0
390 388 391 0
-391 0
41 -392 0
44 -392 0
-392 -42 0
49 -392 0
51 -392 0
-392 -52 0
-392 -60 0
-392 -63 0
-392 -65 0
-392 -66 0
67 -392 0
-392 -77 0
-392 -79 0
-392 -80 0
-392 -81 0
-392 -82 0
-392 -83 0
-392 -84 0
85 -392 0
-392 -111 0
112 -392 0
-392 -119 0
121 -392 0
-392 -122 0
-392 -123 0
-392 -124 0
125 -392 0
126 -392 0
147 -392 0
-392 -149 0
152 -392 0
157 -392 0
-392 -156 0
-392 -163 0
164 -392 0
-392 -172 0
176 -392 0
180 -392 0
181 -392 0
-392 -189 0
-392 -190 0
-392 -191 0
202 -392 0
205 -392 0
207 -392 0
-392 -208 0
209 -392 0
-392 -210 0
211 -392 0
-392 -212 0
-392 -236 0
237 -392 0
246 -392 0
-392 -245 0
254 -392 0
255 -392 0
263 -392 0
-392 -262 0
-392 -271 0
-392 -275 0
279 -392 0
283 -392 0
288 -392 0
-392 -287 0
-392 -296 0
-392 -297 0
-392 -298 0
309 -392 0
-392 -313 0
317 -392 0
-392 -314 0
-392 -315 0
-392 -316 0
318 -392 0
319 -392 0
320 -392 0
354 -392 0
-392 -352 0
-392 -353 0
-392 -366 0
367 -392 0
368 -392 0
380 -392 0
-392 -384 0
-392 -385 0
392 0
-393 0
-394 0
-395 0
-396 0
-397 0
-398 0
-399 0
-400 0
